(set-info :smt-lib-version 2.6)
(set-logic QF_BV)
(set-info :source |
            Generated by: Samuel Coward
            Generated on: 2025-08-12
            Generator: CIRCT
            Application: Datapath synthesis of digital circuits 
            Target solver: Bitwuzla
            Time limit: 300.0
            Benchmarks generated by the CIRCT tool to check correctness of lowering
            from word-level bitvector circuit to a gate-level netlist.
            Using compressor tree circuits proves challenging for SMT.|)
(set-info :license "https://creativecommons.org/licenses/by/4.0/")
(set-info :category "industrial")
(set-info :status unsat)

; solver scope 0
(declare-const tmp (_ BitVec 12))
(declare-const tmp_0 (_ BitVec 12))
(declare-const tmp_1 (_ BitVec 12))
(assert (let ((tmp_2 ((_ extract 0 0) tmp_1)))
        (let ((tmp_3 ((_ extract 0 0) tmp_0)))
        (let ((tmp_4 ((_ extract 0 0) tmp)))
        (let ((tmp_5 (bvand tmp_4 tmp_3)))
        (let ((tmp_6 (bvxor tmp_5 #b1)))
        (let ((tmp_7 (bvxor tmp_3 #b1)))
        (let ((tmp_8 (bvxor tmp_4 #b1)))
        (let ((tmp_9 (bvand tmp_8 tmp_7)))
        (let ((tmp_10 (bvxor tmp_9 #b1)))
        (let ((tmp_11 (bvand tmp_10 tmp_6)))
        (let ((tmp_12 (bvand tmp_11 tmp_2)))
        (let ((tmp_13 (bvxor tmp_12 #b1)))
        (let ((tmp_14 (bvxor tmp_2 #b1)))
        (let ((tmp_15 (bvxor tmp_11 #b1)))
        (let ((tmp_16 (bvand tmp_15 tmp_14)))
        (let ((tmp_17 (bvxor tmp_16 #b1)))
        (let ((tmp_18 (bvand tmp_17 tmp_13)))
        (let ((tmp_19 (bvand tmp_6 tmp_13)))
        (let ((tmp_20 (bvxor tmp_19 #b1)))
        (let ((tmp_21 ((_ extract 1 1) tmp_1)))
        (let ((tmp_22 ((_ extract 1 1) tmp_0)))
        (let ((tmp_23 ((_ extract 1 1) tmp)))
        (let ((tmp_24 (bvand tmp_23 tmp_22)))
        (let ((tmp_25 (bvxor tmp_24 #b1)))
        (let ((tmp_26 (bvxor tmp_22 #b1)))
        (let ((tmp_27 (bvxor tmp_23 #b1)))
        (let ((tmp_28 (bvand tmp_27 tmp_26)))
        (let ((tmp_29 (bvxor tmp_28 #b1)))
        (let ((tmp_30 (bvand tmp_29 tmp_25)))
        (let ((tmp_31 (bvand tmp_30 tmp_21)))
        (let ((tmp_32 (bvxor tmp_31 #b1)))
        (let ((tmp_33 (bvxor tmp_21 #b1)))
        (let ((tmp_34 (bvxor tmp_30 #b1)))
        (let ((tmp_35 (bvand tmp_34 tmp_33)))
        (let ((tmp_36 (bvxor tmp_35 #b1)))
        (let ((tmp_37 (bvand tmp_36 tmp_32)))
        (let ((tmp_38 (bvand tmp_37 tmp_20)))
        (let ((tmp_39 (bvxor tmp_38 #b1)))
        (let ((tmp_40 (bvxor tmp_37 #b1)))
        (let ((tmp_41 (bvand tmp_40 tmp_19)))
        (let ((tmp_42 (bvxor tmp_41 #b1)))
        (let ((tmp_43 (bvand tmp_42 tmp_39)))
        (let ((tmp_44 (bvand tmp_25 tmp_32)))
        (let ((tmp_45 (bvxor tmp_44 #b1)))
        (let ((tmp_46 ((_ extract 2 2) tmp_1)))
        (let ((tmp_47 ((_ extract 2 2) tmp_0)))
        (let ((tmp_48 ((_ extract 2 2) tmp)))
        (let ((tmp_49 (bvand tmp_48 tmp_47)))
        (let ((tmp_50 (bvxor tmp_49 #b1)))
        (let ((tmp_51 (bvxor tmp_47 #b1)))
        (let ((tmp_52 (bvxor tmp_48 #b1)))
        (let ((tmp_53 (bvand tmp_52 tmp_51)))
        (let ((tmp_54 (bvxor tmp_53 #b1)))
        (let ((tmp_55 (bvand tmp_54 tmp_50)))
        (let ((tmp_56 (bvand tmp_55 tmp_46)))
        (let ((tmp_57 (bvxor tmp_56 #b1)))
        (let ((tmp_58 (bvxor tmp_46 #b1)))
        (let ((tmp_59 (bvxor tmp_55 #b1)))
        (let ((tmp_60 (bvand tmp_59 tmp_58)))
        (let ((tmp_61 (bvxor tmp_60 #b1)))
        (let ((tmp_62 (bvand tmp_61 tmp_57)))
        (let ((tmp_63 (bvand tmp_62 tmp_45)))
        (let ((tmp_64 (bvxor tmp_63 #b1)))
        (let ((tmp_65 (bvxor tmp_62 #b1)))
        (let ((tmp_66 (bvand tmp_65 tmp_44)))
        (let ((tmp_67 (bvxor tmp_66 #b1)))
        (let ((tmp_68 (bvand tmp_67 tmp_64)))
        (let ((tmp_69 (bvand tmp_68 tmp_38)))
        (let ((tmp_70 (bvxor tmp_69 #b1)))
        (let ((tmp_71 (bvxor tmp_68 #b1)))
        (let ((tmp_72 (bvand tmp_71 tmp_39)))
        (let ((tmp_73 (bvxor tmp_72 #b1)))
        (let ((tmp_74 (bvand tmp_73 tmp_70)))
        (let ((tmp_75 (bvand tmp_64 tmp_70)))
        (let ((tmp_76 (bvxor tmp_75 #b1)))
        (let ((tmp_77 (bvand tmp_50 tmp_57)))
        (let ((tmp_78 (bvxor tmp_77 #b1)))
        (let ((tmp_79 ((_ extract 3 3) tmp_1)))
        (let ((tmp_80 ((_ extract 3 3) tmp_0)))
        (let ((tmp_81 ((_ extract 3 3) tmp)))
        (let ((tmp_82 (bvand tmp_81 tmp_80)))
        (let ((tmp_83 (bvxor tmp_82 #b1)))
        (let ((tmp_84 (bvxor tmp_80 #b1)))
        (let ((tmp_85 (bvxor tmp_81 #b1)))
        (let ((tmp_86 (bvand tmp_85 tmp_84)))
        (let ((tmp_87 (bvxor tmp_86 #b1)))
        (let ((tmp_88 (bvand tmp_87 tmp_83)))
        (let ((tmp_89 (bvand tmp_88 tmp_79)))
        (let ((tmp_90 (bvxor tmp_89 #b1)))
        (let ((tmp_91 (bvxor tmp_79 #b1)))
        (let ((tmp_92 (bvxor tmp_88 #b1)))
        (let ((tmp_93 (bvand tmp_92 tmp_91)))
        (let ((tmp_94 (bvxor tmp_93 #b1)))
        (let ((tmp_95 (bvand tmp_94 tmp_90)))
        (let ((tmp_96 (bvand tmp_95 tmp_78)))
        (let ((tmp_97 (bvxor tmp_96 #b1)))
        (let ((tmp_98 (bvxor tmp_95 #b1)))
        (let ((tmp_99 (bvand tmp_98 tmp_77)))
        (let ((tmp_100 (bvxor tmp_99 #b1)))
        (let ((tmp_101 (bvand tmp_100 tmp_97)))
        (let ((tmp_102 (bvand tmp_101 tmp_76)))
        (let ((tmp_103 (bvxor tmp_102 #b1)))
        (let ((tmp_104 (bvxor tmp_101 #b1)))
        (let ((tmp_105 (bvand tmp_104 tmp_75)))
        (let ((tmp_106 (bvxor tmp_105 #b1)))
        (let ((tmp_107 (bvand tmp_106 tmp_103)))
        (let ((tmp_108 (bvand tmp_43 tmp_18)))
        (let ((tmp_109 (bvand tmp_68 tmp_108)))
        (let ((tmp_110 (bvand tmp_101 tmp_109)))
        (let ((tmp_111 (bvand tmp_110 tmp_38)))
        (let ((tmp_112 (bvxor tmp_111 #b1)))
        (let ((tmp_113 (bvand tmp_97 tmp_103)))
        (let ((tmp_114 (bvand tmp_113 tmp_112)))
        (let ((tmp_115 (bvxor tmp_114 #b1)))
        (let ((tmp_116 (bvand tmp_83 tmp_90)))
        (let ((tmp_117 (bvxor tmp_116 #b1)))
        (let ((tmp_118 ((_ extract 4 4) tmp_1)))
        (let ((tmp_119 ((_ extract 4 4) tmp_0)))
        (let ((tmp_120 ((_ extract 4 4) tmp)))
        (let ((tmp_121 (bvand tmp_120 tmp_119)))
        (let ((tmp_122 (bvxor tmp_121 #b1)))
        (let ((tmp_123 (bvxor tmp_119 #b1)))
        (let ((tmp_124 (bvxor tmp_120 #b1)))
        (let ((tmp_125 (bvand tmp_124 tmp_123)))
        (let ((tmp_126 (bvxor tmp_125 #b1)))
        (let ((tmp_127 (bvand tmp_126 tmp_122)))
        (let ((tmp_128 (bvand tmp_127 tmp_118)))
        (let ((tmp_129 (bvxor tmp_128 #b1)))
        (let ((tmp_130 (bvxor tmp_118 #b1)))
        (let ((tmp_131 (bvxor tmp_127 #b1)))
        (let ((tmp_132 (bvand tmp_131 tmp_130)))
        (let ((tmp_133 (bvxor tmp_132 #b1)))
        (let ((tmp_134 (bvand tmp_133 tmp_129)))
        (let ((tmp_135 (bvand tmp_134 tmp_117)))
        (let ((tmp_136 (bvxor tmp_135 #b1)))
        (let ((tmp_137 (bvxor tmp_134 #b1)))
        (let ((tmp_138 (bvand tmp_137 tmp_116)))
        (let ((tmp_139 (bvxor tmp_138 #b1)))
        (let ((tmp_140 (bvand tmp_139 tmp_136)))
        (let ((tmp_141 (bvand tmp_140 tmp_115)))
        (let ((tmp_142 (bvxor tmp_141 #b1)))
        (let ((tmp_143 (bvxor tmp_140 #b1)))
        (let ((tmp_144 (bvand tmp_143 tmp_114)))
        (let ((tmp_145 (bvxor tmp_144 #b1)))
        (let ((tmp_146 (bvand tmp_145 tmp_142)))
        (let ((tmp_147 (bvand tmp_140 tmp_110)))
        (let ((tmp_148 (bvand tmp_147 tmp_76)))
        (let ((tmp_149 (bvxor tmp_148 #b1)))
        (let ((tmp_150 (bvxor tmp_113 #b1)))
        (let ((tmp_151 (bvand tmp_140 tmp_150)))
        (let ((tmp_152 (bvxor tmp_151 #b1)))
        (let ((tmp_153 (bvand tmp_136 tmp_152)))
        (let ((tmp_154 (bvand tmp_153 tmp_149)))
        (let ((tmp_155 (bvxor tmp_154 #b1)))
        (let ((tmp_156 (bvand tmp_122 tmp_129)))
        (let ((tmp_157 (bvxor tmp_156 #b1)))
        (let ((tmp_158 ((_ extract 5 5) tmp_1)))
        (let ((tmp_159 ((_ extract 5 5) tmp_0)))
        (let ((tmp_160 ((_ extract 5 5) tmp)))
        (let ((tmp_161 (bvand tmp_160 tmp_159)))
        (let ((tmp_162 (bvxor tmp_161 #b1)))
        (let ((tmp_163 (bvxor tmp_159 #b1)))
        (let ((tmp_164 (bvxor tmp_160 #b1)))
        (let ((tmp_165 (bvand tmp_164 tmp_163)))
        (let ((tmp_166 (bvxor tmp_165 #b1)))
        (let ((tmp_167 (bvand tmp_166 tmp_162)))
        (let ((tmp_168 (bvand tmp_167 tmp_158)))
        (let ((tmp_169 (bvxor tmp_168 #b1)))
        (let ((tmp_170 (bvxor tmp_158 #b1)))
        (let ((tmp_171 (bvxor tmp_167 #b1)))
        (let ((tmp_172 (bvand tmp_171 tmp_170)))
        (let ((tmp_173 (bvxor tmp_172 #b1)))
        (let ((tmp_174 (bvand tmp_173 tmp_169)))
        (let ((tmp_175 (bvand tmp_174 tmp_157)))
        (let ((tmp_176 (bvxor tmp_175 #b1)))
        (let ((tmp_177 (bvxor tmp_174 #b1)))
        (let ((tmp_178 (bvand tmp_177 tmp_156)))
        (let ((tmp_179 (bvxor tmp_178 #b1)))
        (let ((tmp_180 (bvand tmp_179 tmp_176)))
        (let ((tmp_181 (bvand tmp_180 tmp_155)))
        (let ((tmp_182 (bvxor tmp_181 #b1)))
        (let ((tmp_183 (bvxor tmp_180 #b1)))
        (let ((tmp_184 (bvand tmp_183 tmp_154)))
        (let ((tmp_185 (bvxor tmp_184 #b1)))
        (let ((tmp_186 (bvand tmp_185 tmp_182)))
        (let ((tmp_187 (bvand tmp_180 tmp_147)))
        (let ((tmp_188 (bvand tmp_187 tmp_38)))
        (let ((tmp_189 (bvxor tmp_188 #b1)))
        (let ((tmp_190 (bvand tmp_187 tmp_115)))
        (let ((tmp_191 (bvxor tmp_190 #b1)))
        (let ((tmp_192 (bvxor tmp_153 #b1)))
        (let ((tmp_193 (bvand tmp_180 tmp_192)))
        (let ((tmp_194 (bvxor tmp_193 #b1)))
        (let ((tmp_195 (bvand tmp_176 tmp_194)))
        (let ((tmp_196 (bvand tmp_195 tmp_191)))
        (let ((tmp_197 (bvand tmp_196 tmp_189)))
        (let ((tmp_198 (bvxor tmp_197 #b1)))
        (let ((tmp_199 (bvand tmp_162 tmp_169)))
        (let ((tmp_200 (bvxor tmp_199 #b1)))
        (let ((tmp_201 ((_ extract 6 6) tmp_1)))
        (let ((tmp_202 ((_ extract 6 6) tmp_0)))
        (let ((tmp_203 ((_ extract 6 6) tmp)))
        (let ((tmp_204 (bvand tmp_203 tmp_202)))
        (let ((tmp_205 (bvxor tmp_204 #b1)))
        (let ((tmp_206 (bvxor tmp_202 #b1)))
        (let ((tmp_207 (bvxor tmp_203 #b1)))
        (let ((tmp_208 (bvand tmp_207 tmp_206)))
        (let ((tmp_209 (bvxor tmp_208 #b1)))
        (let ((tmp_210 (bvand tmp_209 tmp_205)))
        (let ((tmp_211 (bvand tmp_210 tmp_201)))
        (let ((tmp_212 (bvxor tmp_211 #b1)))
        (let ((tmp_213 (bvxor tmp_201 #b1)))
        (let ((tmp_214 (bvxor tmp_210 #b1)))
        (let ((tmp_215 (bvand tmp_214 tmp_213)))
        (let ((tmp_216 (bvxor tmp_215 #b1)))
        (let ((tmp_217 (bvand tmp_216 tmp_212)))
        (let ((tmp_218 (bvand tmp_217 tmp_200)))
        (let ((tmp_219 (bvxor tmp_218 #b1)))
        (let ((tmp_220 (bvxor tmp_217 #b1)))
        (let ((tmp_221 (bvand tmp_220 tmp_199)))
        (let ((tmp_222 (bvxor tmp_221 #b1)))
        (let ((tmp_223 (bvand tmp_222 tmp_219)))
        (let ((tmp_224 (bvand tmp_223 tmp_198)))
        (let ((tmp_225 (bvxor tmp_224 #b1)))
        (let ((tmp_226 (bvxor tmp_223 #b1)))
        (let ((tmp_227 (bvand tmp_226 tmp_197)))
        (let ((tmp_228 (bvxor tmp_227 #b1)))
        (let ((tmp_229 (bvand tmp_228 tmp_225)))
        (let ((tmp_230 (bvand tmp_223 tmp_187)))
        (let ((tmp_231 (bvand tmp_230 tmp_76)))
        (let ((tmp_232 (bvxor tmp_231 #b1)))
        (let ((tmp_233 (bvand tmp_230 tmp_155)))
        (let ((tmp_234 (bvxor tmp_233 #b1)))
        (let ((tmp_235 (bvxor tmp_195 #b1)))
        (let ((tmp_236 (bvand tmp_223 tmp_235)))
        (let ((tmp_237 (bvxor tmp_236 #b1)))
        (let ((tmp_238 (bvand tmp_219 tmp_237)))
        (let ((tmp_239 (bvand tmp_238 tmp_234)))
        (let ((tmp_240 (bvand tmp_239 tmp_232)))
        (let ((tmp_241 (bvxor tmp_240 #b1)))
        (let ((tmp_242 (bvand tmp_205 tmp_212)))
        (let ((tmp_243 (bvxor tmp_242 #b1)))
        (let ((tmp_244 ((_ extract 7 7) tmp_1)))
        (let ((tmp_245 ((_ extract 7 7) tmp_0)))
        (let ((tmp_246 ((_ extract 7 7) tmp)))
        (let ((tmp_247 (bvand tmp_246 tmp_245)))
        (let ((tmp_248 (bvxor tmp_247 #b1)))
        (let ((tmp_249 (bvxor tmp_245 #b1)))
        (let ((tmp_250 (bvxor tmp_246 #b1)))
        (let ((tmp_251 (bvand tmp_250 tmp_249)))
        (let ((tmp_252 (bvxor tmp_251 #b1)))
        (let ((tmp_253 (bvand tmp_252 tmp_248)))
        (let ((tmp_254 (bvand tmp_253 tmp_244)))
        (let ((tmp_255 (bvxor tmp_254 #b1)))
        (let ((tmp_256 (bvxor tmp_244 #b1)))
        (let ((tmp_257 (bvxor tmp_253 #b1)))
        (let ((tmp_258 (bvand tmp_257 tmp_256)))
        (let ((tmp_259 (bvxor tmp_258 #b1)))
        (let ((tmp_260 (bvand tmp_259 tmp_255)))
        (let ((tmp_261 (bvand tmp_260 tmp_243)))
        (let ((tmp_262 (bvxor tmp_261 #b1)))
        (let ((tmp_263 (bvxor tmp_260 #b1)))
        (let ((tmp_264 (bvand tmp_263 tmp_242)))
        (let ((tmp_265 (bvxor tmp_264 #b1)))
        (let ((tmp_266 (bvand tmp_265 tmp_262)))
        (let ((tmp_267 (bvand tmp_266 tmp_241)))
        (let ((tmp_268 (bvxor tmp_267 #b1)))
        (let ((tmp_269 (bvxor tmp_266 #b1)))
        (let ((tmp_270 (bvand tmp_269 tmp_240)))
        (let ((tmp_271 (bvxor tmp_270 #b1)))
        (let ((tmp_272 (bvand tmp_271 tmp_268)))
        (let ((tmp_273 (bvand tmp_266 tmp_230)))
        (let ((tmp_274 (bvand tmp_273 tmp_115)))
        (let ((tmp_275 (bvxor tmp_274 #b1)))
        (let ((tmp_276 (bvxor tmp_196 #b1)))
        (let ((tmp_277 (bvand tmp_273 tmp_276)))
        (let ((tmp_278 (bvxor tmp_277 #b1)))
        (let ((tmp_279 (bvxor tmp_238 #b1)))
        (let ((tmp_280 (bvand tmp_266 tmp_279)))
        (let ((tmp_281 (bvxor tmp_280 #b1)))
        (let ((tmp_282 (bvand tmp_262 tmp_281)))
        (let ((tmp_283 (bvand tmp_282 tmp_278)))
        (let ((tmp_284 (bvand tmp_283 tmp_275)))
        (let ((tmp_285 (bvxor tmp_284 #b1)))
        (let ((tmp_286 (bvand tmp_248 tmp_255)))
        (let ((tmp_287 (bvxor tmp_286 #b1)))
        (let ((tmp_288 ((_ extract 8 8) tmp_1)))
        (let ((tmp_289 ((_ extract 8 8) tmp_0)))
        (let ((tmp_290 ((_ extract 8 8) tmp)))
        (let ((tmp_291 (bvand tmp_290 tmp_289)))
        (let ((tmp_292 (bvxor tmp_291 #b1)))
        (let ((tmp_293 (bvxor tmp_289 #b1)))
        (let ((tmp_294 (bvxor tmp_290 #b1)))
        (let ((tmp_295 (bvand tmp_294 tmp_293)))
        (let ((tmp_296 (bvxor tmp_295 #b1)))
        (let ((tmp_297 (bvand tmp_296 tmp_292)))
        (let ((tmp_298 (bvand tmp_297 tmp_288)))
        (let ((tmp_299 (bvxor tmp_298 #b1)))
        (let ((tmp_300 (bvxor tmp_288 #b1)))
        (let ((tmp_301 (bvxor tmp_297 #b1)))
        (let ((tmp_302 (bvand tmp_301 tmp_300)))
        (let ((tmp_303 (bvxor tmp_302 #b1)))
        (let ((tmp_304 (bvand tmp_303 tmp_299)))
        (let ((tmp_305 (bvand tmp_304 tmp_287)))
        (let ((tmp_306 (bvxor tmp_305 #b1)))
        (let ((tmp_307 (bvxor tmp_304 #b1)))
        (let ((tmp_308 (bvand tmp_307 tmp_286)))
        (let ((tmp_309 (bvxor tmp_308 #b1)))
        (let ((tmp_310 (bvand tmp_309 tmp_306)))
        (let ((tmp_311 (bvand tmp_310 tmp_285)))
        (let ((tmp_312 (bvxor tmp_311 #b1)))
        (let ((tmp_313 (bvxor tmp_310 #b1)))
        (let ((tmp_314 (bvand tmp_313 tmp_284)))
        (let ((tmp_315 (bvxor tmp_314 #b1)))
        (let ((tmp_316 (bvand tmp_315 tmp_312)))
        (let ((tmp_317 (bvand tmp_310 tmp_273)))
        (let ((tmp_318 (bvand tmp_317 tmp_155)))
        (let ((tmp_319 (bvxor tmp_318 #b1)))
        (let ((tmp_320 (bvxor tmp_239 #b1)))
        (let ((tmp_321 (bvand tmp_317 tmp_320)))
        (let ((tmp_322 (bvxor tmp_321 #b1)))
        (let ((tmp_323 (bvxor tmp_282 #b1)))
        (let ((tmp_324 (bvand tmp_310 tmp_323)))
        (let ((tmp_325 (bvxor tmp_324 #b1)))
        (let ((tmp_326 (bvand tmp_306 tmp_325)))
        (let ((tmp_327 (bvand tmp_326 tmp_322)))
        (let ((tmp_328 (bvand tmp_327 tmp_319)))
        (let ((tmp_329 (bvxor tmp_328 #b1)))
        (let ((tmp_330 (bvand tmp_292 tmp_299)))
        (let ((tmp_331 (bvxor tmp_330 #b1)))
        (let ((tmp_332 ((_ extract 9 9) tmp_1)))
        (let ((tmp_333 ((_ extract 9 9) tmp_0)))
        (let ((tmp_334 ((_ extract 9 9) tmp)))
        (let ((tmp_335 (bvand tmp_334 tmp_333)))
        (let ((tmp_336 (bvxor tmp_335 #b1)))
        (let ((tmp_337 (bvxor tmp_333 #b1)))
        (let ((tmp_338 (bvxor tmp_334 #b1)))
        (let ((tmp_339 (bvand tmp_338 tmp_337)))
        (let ((tmp_340 (bvxor tmp_339 #b1)))
        (let ((tmp_341 (bvand tmp_340 tmp_336)))
        (let ((tmp_342 (bvand tmp_341 tmp_332)))
        (let ((tmp_343 (bvxor tmp_342 #b1)))
        (let ((tmp_344 (bvxor tmp_332 #b1)))
        (let ((tmp_345 (bvxor tmp_341 #b1)))
        (let ((tmp_346 (bvand tmp_345 tmp_344)))
        (let ((tmp_347 (bvxor tmp_346 #b1)))
        (let ((tmp_348 (bvand tmp_347 tmp_343)))
        (let ((tmp_349 (bvand tmp_348 tmp_331)))
        (let ((tmp_350 (bvxor tmp_349 #b1)))
        (let ((tmp_351 (bvxor tmp_348 #b1)))
        (let ((tmp_352 (bvand tmp_351 tmp_330)))
        (let ((tmp_353 (bvxor tmp_352 #b1)))
        (let ((tmp_354 (bvand tmp_353 tmp_350)))
        (let ((tmp_355 (bvand tmp_354 tmp_329)))
        (let ((tmp_356 (bvxor tmp_355 #b1)))
        (let ((tmp_357 (bvxor tmp_354 #b1)))
        (let ((tmp_358 (bvand tmp_357 tmp_328)))
        (let ((tmp_359 (bvxor tmp_358 #b1)))
        (let ((tmp_360 (bvand tmp_359 tmp_356)))
        (let ((tmp_361 (bvand tmp_108 tmp_38)))
        (let ((tmp_362 (bvand tmp_354 tmp_317)))
        (let ((tmp_363 (bvand tmp_362 tmp_187)))
        (let ((tmp_364 (bvand tmp_363 tmp_361)))
        (let ((tmp_365 (bvxor tmp_364 #b1)))
        (let ((tmp_366 (bvand tmp_362 tmp_198)))
        (let ((tmp_367 (bvxor tmp_366 #b1)))
        (let ((tmp_368 (bvand tmp_367 tmp_365)))
        (let ((tmp_369 (bvxor tmp_283 #b1)))
        (let ((tmp_370 (bvand tmp_362 tmp_369)))
        (let ((tmp_371 (bvxor tmp_370 #b1)))
        (let ((tmp_372 (bvxor tmp_326 #b1)))
        (let ((tmp_373 (bvand tmp_354 tmp_372)))
        (let ((tmp_374 (bvxor tmp_373 #b1)))
        (let ((tmp_375 (bvand tmp_350 tmp_374)))
        (let ((tmp_376 (bvand tmp_375 tmp_371)))
        (let ((tmp_377 (bvand tmp_376 tmp_368)))
        (let ((tmp_378 (bvxor tmp_377 #b1)))
        (let ((tmp_379 (bvand tmp_336 tmp_343)))
        (let ((tmp_380 (bvxor tmp_379 #b1)))
        (let ((tmp_381 ((_ extract 10 10) tmp_1)))
        (let ((tmp_382 ((_ extract 10 10) tmp_0)))
        (let ((tmp_383 ((_ extract 10 10) tmp)))
        (let ((tmp_384 (bvand tmp_383 tmp_382)))
        (let ((tmp_385 (bvxor tmp_384 #b1)))
        (let ((tmp_386 (bvxor tmp_382 #b1)))
        (let ((tmp_387 (bvxor tmp_383 #b1)))
        (let ((tmp_388 (bvand tmp_387 tmp_386)))
        (let ((tmp_389 (bvxor tmp_388 #b1)))
        (let ((tmp_390 (bvand tmp_389 tmp_385)))
        (let ((tmp_391 (bvand tmp_390 tmp_381)))
        (let ((tmp_392 (bvxor tmp_391 #b1)))
        (let ((tmp_393 (bvxor tmp_381 #b1)))
        (let ((tmp_394 (bvxor tmp_390 #b1)))
        (let ((tmp_395 (bvand tmp_394 tmp_393)))
        (let ((tmp_396 (bvxor tmp_395 #b1)))
        (let ((tmp_397 (bvand tmp_396 tmp_392)))
        (let ((tmp_398 (bvand tmp_397 tmp_380)))
        (let ((tmp_399 (bvxor tmp_398 #b1)))
        (let ((tmp_400 (bvxor tmp_397 #b1)))
        (let ((tmp_401 (bvand tmp_400 tmp_379)))
        (let ((tmp_402 (bvxor tmp_401 #b1)))
        (let ((tmp_403 (bvand tmp_402 tmp_399)))
        (let ((tmp_404 (bvand tmp_403 tmp_378)))
        (let ((tmp_405 (bvxor tmp_404 #b1)))
        (let ((tmp_406 (bvxor tmp_403 #b1)))
        (let ((tmp_407 (bvand tmp_406 tmp_377)))
        (let ((tmp_408 (bvxor tmp_407 #b1)))
        (let ((tmp_409 (bvand tmp_408 tmp_405)))
        (let ((tmp_410 (bvand tmp_109 tmp_76)))
        (let ((tmp_411 (bvand tmp_403 tmp_362)))
        (let ((tmp_412 (bvand tmp_411 tmp_230)))
        (let ((tmp_413 (bvand tmp_412 tmp_410)))
        (let ((tmp_414 (bvxor tmp_413 #b1)))
        (let ((tmp_415 (bvand tmp_411 tmp_241)))
        (let ((tmp_416 (bvxor tmp_415 #b1)))
        (let ((tmp_417 (bvand tmp_416 tmp_414)))
        (let ((tmp_418 (bvxor tmp_327 #b1)))
        (let ((tmp_419 (bvand tmp_411 tmp_418)))
        (let ((tmp_420 (bvxor tmp_419 #b1)))
        (let ((tmp_421 (bvxor tmp_375 #b1)))
        (let ((tmp_422 (bvand tmp_403 tmp_421)))
        (let ((tmp_423 (bvxor tmp_422 #b1)))
        (let ((tmp_424 (bvand tmp_399 tmp_423)))
        (let ((tmp_425 (bvand tmp_424 tmp_420)))
        (let ((tmp_426 (bvand tmp_425 tmp_417)))
        (let ((tmp_427 (bvxor tmp_426 #b1)))
        (let ((tmp_428 (bvand tmp_385 tmp_392)))
        (let ((tmp_429 (bvxor tmp_428 #b1)))
        (let ((tmp_430 ((_ extract 11 11) tmp_1)))
        (let ((tmp_431 ((_ extract 11 11) tmp_0)))
        (let ((tmp_432 ((_ extract 11 11) tmp)))
        (let ((tmp_433 (bvand tmp_432 tmp_431)))
        (let ((tmp_434 (bvxor tmp_433 #b1)))
        (let ((tmp_435 (bvxor tmp_431 #b1)))
        (let ((tmp_436 (bvxor tmp_432 #b1)))
        (let ((tmp_437 (bvand tmp_436 tmp_435)))
        (let ((tmp_438 (bvxor tmp_437 #b1)))
        (let ((tmp_439 (bvand tmp_438 tmp_434)))
        (let ((tmp_440 (bvand tmp_439 tmp_430)))
        (let ((tmp_441 (bvxor tmp_440 #b1)))
        (let ((tmp_442 (bvxor tmp_430 #b1)))
        (let ((tmp_443 (bvxor tmp_439 #b1)))
        (let ((tmp_444 (bvand tmp_443 tmp_442)))
        (let ((tmp_445 (bvxor tmp_444 #b1)))
        (let ((tmp_446 (bvand tmp_445 tmp_441)))
        (let ((tmp_447 (bvand tmp_446 tmp_429)))
        (let ((tmp_448 (bvxor tmp_447 #b1)))
        (let ((tmp_449 (bvxor tmp_446 #b1)))
        (let ((tmp_450 (bvand tmp_449 tmp_428)))
        (let ((tmp_451 (bvxor tmp_450 #b1)))
        (let ((tmp_452 (bvand tmp_451 tmp_448)))
        (let ((tmp_453 (bvand tmp_452 tmp_427)))
        (let ((tmp_454 (bvxor tmp_453 #b1)))
        (let ((tmp_455 (bvxor tmp_452 #b1)))
        (let ((tmp_456 (bvand tmp_455 tmp_426)))
        (let ((tmp_457 (bvxor tmp_456 #b1)))
        (let ((tmp_458 (bvand tmp_457 tmp_454)))
        (let ((tmp_459 (bvand tmp_110 tmp_115)))
        (let ((tmp_460 (bvand tmp_452 tmp_411)))
        (let ((tmp_461 (bvand tmp_460 tmp_273)))
        (let ((tmp_462 (bvand tmp_461 tmp_459)))
        (let ((tmp_463 (bvxor tmp_462 #b1)))
        (let ((tmp_464 (bvand tmp_460 tmp_285)))
        (let ((tmp_465 (bvxor tmp_464 #b1)))
        (let ((tmp_466 (bvand tmp_465 tmp_463)))
        (let ((tmp_467 (bvxor tmp_376 #b1)))
        (let ((tmp_468 (bvand tmp_460 tmp_467)))
        (let ((tmp_469 (bvxor tmp_468 #b1)))
        (let ((tmp_470 (bvand tmp_469 tmp_466)))
        (let ((tmp_471 (bvxor tmp_424 #b1)))
        (let ((tmp_472 (bvand tmp_452 tmp_471)))
        (let ((tmp_473 (bvxor tmp_472 #b1)))
        (let ((tmp_474 (bvand tmp_448 tmp_473)))
        (let ((tmp_475 (bvand tmp_474 tmp_470)))
        (let ((tmp_476 (bvxor tmp_475 #b1)))
        (let ((tmp_477 (bvand tmp_434 tmp_441)))
        (let ((tmp_478 (bvxor tmp_477 #b1)))
        (let ((tmp_479 (bvand tmp_478 tmp_476)))
        (let ((tmp_480 (bvxor tmp_479 #b1)))
        (let ((tmp_481 (bvand tmp_477 tmp_475)))
        (let ((tmp_482 (bvxor tmp_481 #b1)))
        (let ((tmp_483 (bvand tmp_482 tmp_480)))
        (let ((tmp_484 (concat tmp_483 tmp_458)))
        (let ((tmp_485 (concat tmp_484 tmp_409)))
        (let ((tmp_486 (concat tmp_485 tmp_360)))
        (let ((tmp_487 (concat tmp_486 tmp_316)))
        (let ((tmp_488 (concat tmp_487 tmp_272)))
        (let ((tmp_489 (concat tmp_488 tmp_229)))
        (let ((tmp_490 (concat tmp_489 tmp_186)))
        (let ((tmp_491 (concat tmp_490 tmp_146)))
        (let ((tmp_492 (concat tmp_491 tmp_107)))
        (let ((tmp_493 (concat tmp_492 tmp_74)))
        (let ((tmp_494 (concat tmp_493 tmp_43)))
        (let ((tmp_495 (concat tmp_494 tmp_18)))
        (let ((tmp_496 (concat #b0 tmp_1)))
        (let ((tmp_497 (concat #b0 tmp_0)))
        (let ((tmp_498 (concat #b0 tmp)))
        (let ((tmp_499 (bvadd tmp_498 tmp_497)))
        (let ((tmp_500 (bvadd tmp_499 tmp_496)))
        (let ((tmp_501 (distinct tmp_500 tmp_495)))
        tmp_501)))))))))))))))))))))))))))))))))))))))))))))))))))))))))))))))))))))))))))))))))))))))))))))))))))))))))))))))))))))))))))))))))))))))))))))))))))))))))))))))))))))))))))))))))))))))))))))))))))))))))))))))))))))))))))))))))))))))))))))))))))))))))))))))))))))))))))))))))))))))))))))))))))))))))))))))))))))))))))))))))))))))))))))))))))))))))))))))))))))))))))))))))))))))))))))))))))))))))))))))))))))))))))))))))))))))))))))))))))))))))))))))))))))))))))))))))))))))))))))))))))))))))))))))))))))
(check-sat)

(exit)